c description: Random 3-CNF over 5 variables and 5 clauses
c generator: CNFgen (0.9.2)
c copyright: (C) 2012-2022 Massimo Lauria <massimo.lauria@uniroma1.it>
c url: https://massimolauria.net/cnfgen
c command line: cnfgen randkcnf 3 5 5
c
p cnf 5 5
2 3 -5 0
-2 3 -5 0
-3 4 5 0
-2 -3 -5 0
-1 -3 -4 0
